; sample line 3
(set-logic QF_LIA) ; Quantifier-Free Linear Integer Arithmetic (or QF_LRA for Reals)
(declare-const n0 Int)
(declare-const n1 Int)
(declare-const n2 Int)
(declare-const n3 Int)
(declare-const n4 Int)
(declare-const n5 Int)
(assert (>= n0 0))
(assert (>= n1 0))
(assert (>= n2 0))
(assert (>= n3 0))
(assert (>= n4 0))
(assert (>= n5 0))
(minimize (+ n0 n1 n2 n3 n4 n5))
(assert (= (+ n4 n5) 3))
(assert (= (+ n1 n5) 5))
(assert (= (+ n2 n3 n4) 4))
(assert (= (+ n0 n1 n3) 7))
(check-sat)
(get-model)
